Traveling Salesman Problem/TSP_generados/Aleatorio1621103700_17.tsp
NAME: Aleatorio1621103700_17.tsp
COMMENT: Randomly generated scenario
TYPE: TSP
DIMENSION: 17
EDGE_WEIGHT_TYPE: ATT
NODE_COORD_SECTION
1 19.41 37.2
2 28.67 1.1
3 2.77 13.04
4 4.61 5.21
5 8.8 33.05
6 46.18 34.25
7 14.59 24.51
8 25.49 27.5
9 34.38 9.43
10 17.2 15.01
11 16.96 40.87
12 4.23 34.46
13 26.12 25.19
14 15.42 26.97
15 22.1 27.73
16 29.96 38.46
17 49.26 11.74
