Traveling Salesman Problem/TSP_generados/Aleatorio1621103700_17.opt.tour
NAME: Aleatorio1621103700_17.opt.tour
COMMENT: Optimal solution for Aleatorio1621103700_17 (184.68753183172672)
TYPE: TOUR
DIMENSION: 17
TOUR_SECTION
1 16 6 17 9 2 4 3 10 13 8 15 14 7 5 12 11
-1
EOF
